c   #vars: 73   #clauses: 348   #literals: 980
c 
p cnf 73 348
4 41 42 -70 0
-2 -3 0
5 27 28 -59 0
-6 -7 0
-8 -9 0
1 39 40 -63 0
-10 -11 0
-12 -13 0
10 11 67 68 0
-14 -15 0
-16 -17 0
-18 -19 0
-20 -21 0
-22 -23 0
38 -53 70 71 0
-25 -26 0
-27 -28 0
-29 -30 0
-31 -32 0
-2 45 56 57 0
-34 -35 0
-36 -37 0
48 -59 72 73 0
-39 -40 0
-41 -42 0
14 15 61 62 0
-43 -44 0
-46 -47 0
14 15 -39 58 0
-16 -22 -23 49 0
-50 -51 0
-52 -53 0
-54 -55 0
-56 -57 0
-16 49 70 71 0
2 3 36 37 0
-59 -60 0
-61 -62 0
-63 -64 0
6 7 46 47 0
-65 -66 0
12 13 54 55 0
-67 -68 0
-8 33 -42 69 0
12 13 41 42 0
-70 -71 0
-14 22 23 58 0
8 9 54 55 0
14 15 34 35 0
20 21 72 73 0
-72 -73 0
4 41 42 -59 0
-1 -40 0
22 23 -39 58 0
4 59 60 -70 0
-1 -55 0
4 -41 70 71 0
4 -41 59 60 0
-1 -64 0
18 19 63 64 0
-2 -29 0
-3 -30 0
18 19 46 47 0
-2 -34 0
-3 -35 0
-2 -36 0
-3 -37 0
-3 -45 0
43 44 56 57 0
-2 -61 0
-3 -62 0
-2 -70 0
-3 -71 0
4 -59 70 71 0
5 27 28 -38 0
-4 -42 0
29 30 67 68 0
48 54 55 -59 0
-4 -60 0
5 -27 38 -53 0
48 54 55 -72 0
-4 -71 0
12 13 -14 24 0
49 -63 70 71 0
-5 -28 0
25 26 70 71 0
22 23 -33 69 0
48 -54 72 73 0
-33 41 42 69 0
-20 -23 33 69 0
-5 -60 0
27 28 61 62 0
-6 -43 0
-7 -44 0
-6 -46 0
-7 -47 0
-6 -50 0
-7 -51 0
-20 33 -42 69 0
-6 -67 0
-7 -68 0
25 26 67 68 0
-6 -72 0
-7 -73 0
16 17 65 66 0
-8 -31 0
-9 -32 0
2 3 61 62 0
2 3 45 -63 0
-9 -33 0
20 21 27 28 0
-8 -39 0
-9 -40 0
20 21 33 -69 0
-8 -54 0
-9 -55 0
5 -27 38 -71 0
-8 -56 0
-9 -57 0
1 39 40 -54 0
-14 24 65 66 0
8 9 56 57 0
1 -54 63 64 0
-12 24 65 66 0
14 15 54 55 0
31 32 67 68 0
-12 14 15 24 0
-23 41 42 69 0
-10 -29 0
-11 -30 0
16 17 72 73 0
-10 -31 0
-11 -32 0
2 3 70 71 0
-10 -50 0
-11 -51 0
5 -38 59 60 0
-10 -67 0
-11 -68 0
-8 20 21 33 0
5 38 -59 -71 0
-5 38 70 71 0
-13 -24 0
18 19 39 40 0
-12 -34 0
-13 -35 0
-12 -41 0
-13 -42 0
6 7 50 51 0
-12 -46 0
-13 -47 0
41 42 67 68 0
-12 -54 0
-13 -55 0
-12 -56 0
-13 -57 0
39 40 72 73 0
-12 -61 0
-13 -62 0
6 7 43 44 0
-12 -65 0
-13 -66 0
45 -56 63 64 0
22 23 27 28 0
-2 45 63 64 0
38 52 53 -71 0
-15 -24 0
2 3 29 30 0
-14 -25 0
-15 -26 0
8 9 39 40 0
-14 -34 0
-15 -35 0
14 15 50 51 0
-14 -43 0
-15 -44 0
-14 -50 0
-15 -51 0
20 21 67 68 0
-14 -54 0
-15 -55 0
-15 -58 0
36 37 72 73 0
-14 -61 0
-15 -62 0
-16 -41 0
-17 -42 0
-17 -49 0
45 56 57 -63 0
-16 -65 0
-17 -66 0
6 7 72 73 0
-16 -70 0
-17 -71 0
-16 -72 0
-17 -73 0
25 26 59 60 0
-18 -31 0
-19 -32 0
8 9 -20 33 0
-18 -34 0
-19 -35 0
12 13 56 57 0
-18 -39 0
-19 -40 0
-18 -46 0
-19 -47 0
5 -27 59 60 0
-18 -50 0
-19 -51 0
5 38 -53 -59 0
-18 -63 0
-19 -64 0
10 11 29 30 0
-20 -25 0
-21 -26 0
-20 -27 0
-21 -28 0
2 3 45 -56 0
-21 -33 0
-20 -59 0
-21 -60 0
16 17 41 42 0
-20 -67 0
-21 -68 0
-20 -70 0
-21 -71 0
20 21 25 26 0
-20 -72 0
-21 -73 0
-22 -25 0
-23 -26 0
-22 -27 0
-23 -28 0
36 37 61 62 0
-22 -43 0
-23 -44 0
-22 -46 0
-23 -47 0
-22 -52 0
-23 -53 0
16 17 49 -63 0
-23 -58 0
-8 -23 33 69 0
49 63 64 -70 0
29 30 56 57 0
-22 -69 0
22 23 43 44 0
-5 38 52 53 0
-24 -66 0
8 9 33 -69 0
-25 -59 0
-26 -60 0
12 13 34 35 0
-25 -67 0
-26 -68 0
-25 -70 0
-26 -71 0
12 13 24 -65 0
-27 -61 0
-28 -62 0
18 19 31 32 0
-29 -56 0
-30 -57 0
8 9 31 32 0
-29 -61 0
-30 -62 0
31 32 65 66 0
-29 -67 0
-30 -68 0
10 11 31 32 0
-29 -70 0
-30 -71 0
18 19 34 35 0
-31 -50 0
-32 -51 0
12 13 61 62 0
-31 -65 0
-32 -66 0
2 3 34 35 0
-31 -67 0
-32 -68 0
22 23 46 47 0
34 35 52 53 0
1 -39 54 55 0
-22 -23 49 -70 0
-34 -52 0
-35 -53 0
39 40 52 53 0
-34 -54 0
-35 -55 0
-36 -50 0
-37 -51 0
-36 -61 0
-37 -62 0
1 54 55 -63 0
-36 -72 0
-37 -73 0
20 21 59 60 0
-38 -52 0
48 59 60 -72 0
14 15 25 26 0
-38 -70 0
48 -54 59 60 0
14 15 43 44 0
-39 -52 0
-40 -53 0
29 30 70 71 0
16 17 49 -70 0
-40 -58 0
31 32 50 51 0
-39 -72 0
-40 -73 0
41 42 54 55 0
-41 -54 0
-42 -55 0
34 35 54 55 0
-41 -67 0
-42 -68 0
12 13 65 66 0
-41 -69 0
-22 -23 49 -63 0
22 23 25 26 0
18 19 50 51 0
14 15 24 -65 0
29 30 61 62 0
12 13 46 47 0
-43 -56 0
-44 -57 0
-45 -57 0
16 17 70 71 0
1 -39 63 64 0
-45 -64 0
36 37 50 51 0
14 15 -22 58 0
-48 -55 0
20 21 70 71 0
-22 39 40 58 0
-48 -60 0
22 23 52 53 0
-14 39 40 58 0
-48 -73 0
6 7 67 68 0
-49 -64 0
10 11 50 51 0
22 23 -42 69 0
-16 49 63 64 0
-49 -71 0
